# Components (V)
1 2 3 4 5 6 7 8 9 10 11 12 13 14 15 16 17 18 19 20 21 22 23 24 25 26 27 28 29 30 31 32 33 34 35 36 37 38 39 40 41 42 43 44 45 46 47 48 49 50 51 52 53 54 55 56 57 58 59 60 61 62 63 64 65 66 67 68 69 70 71 72 73 74 75 76 77 78 79 80 81 82 83 84 85 86 87 88 89 90 91 92 93 94 95 96 97 98 99 100 101 102 103 104 105 106 107 108 109 110 111 112 113 114 115 116 117 118 119 120 121 122 123 124 125 126 127 128 129 130 131 132 133 134 135 136 137 138 139 140 141 142 143 144 145 146 147 148 149 150 151 152 153 154 155 156 157 158 159 160 161 162 163 164 165 166 167 168 169 170 171 172 173 174 175 176 177 178 179 180 181 182 183 184 185 186 187 188 189 190 191 192 193 194 195 196 197 198 199 200 201 202 203 204 205 206 207 208 209 210 211 212 213 214 215 216 217 218 219 220 221 222 223 224 225 226 227 228 229 230 231 232 233 234 235 236 237 238 239 240 241 242 243 244 245 246 247 248 249 250 251 252 253 254 255 256 257 258 259 260 261 262 263 264 265 266 267 268 269 270 271 272 273 274 275 276 277 278 279 280 281 282 283 284 285 286 287 288 289 290 291 292 293 294 295 296 297 298 299 300 301 302 303 304 305 306 307 308 309 310 311 312 313 314 315 316 317 318 319 320 321 322 323 324 325 326 327 328 329 330 331 332 333 334 335 336 337 338 339 340 341 342 343 344 345 346 347 348 349 350 351 352 353 354 355 356 357 358 359 360 361 362 363 364

# Precedence arcs (E)
3 333
4 333
5 136
6 136
7 169
8 280
9 263
10 27
10 40
11 31
12 33
12 35
13 23
14 39
15 25
15 32
16 38
17 24
17 29
17 36
18 30
18 34
19 22
19 37
20 28
21 26
21 41
22 333
23 136
24 136
25 169
26 280
27 263
28 42
29 54
31 48
31 57
31 58
31 59
32 52
32 115
33 47
34 45
34 51
34 55
36 43
36 44
36 56
37 46
39 50
40 49
40 53
43 136
44 169
45 63
45 66
45 70
45 82
47 72
49 67
49 74
49 80
50 79
50 81
51 64
51 75
51 85
52 68
53 60
53 77
53 83
54 62
54 69
54 73
54 78
56 61
56 65
56 71
57 84
58 76
63 333
64 333
65 136
66 136
67 169
68 280
69 280
70 86
71 103
72 91
72 100
73 327
75 88
75 264
76 87
76 102
77 92
77 95
77 104
79 97
80 90
80 105
82 101
84 89
85 93
85 94
85 96
85 98
85 99
85 106
85 107
87 180
90 136
91 136
92 136
93 136
94 169
95 169
96 108
96 123
97 112
97 127
98 114
98 120
98 121
98 125
98 130
99 119
99 126
100 110
102 122
102 124
102 131
103 111
104 128
105 113
105 116
105 129
106 115
106 117
107 109
107 118
108 180
109 180
111 223
112 223
113 333
114 136
115 136
116 136
117 135
117 143
118 134
118 140
118 144
118 150
120 137
121 132
121 139
122 149
123 146
125 138
125 141
126 133
128 142
128 147
129 148
130 152
131 145
131 151
136 161
136 162
136 163
136 164
136 165
136 166
136 167
136 168
136 176
137 169
138 169
139 169
141 159
141 173
141 175
142 172
145 156
147 178
148 157
148 171
148 177
149 153
149 154
151 155
151 158
151 160
152 160
152 170
152 174
154 180
155 180
160 333
164 202
167 191
168 192
169 184
169 185
169 186
169 187
169 188
169 189
169 190
170 193
172 201
174 179
175 194
176 181
176 195
176 196
176 198
177 182
177 183
177 199
177 200
178 197
180 203
180 204
180 205
180 206
180 207
183 223
185 272
187 208
189 214
189 220
191 219
192 216
194 221
197 212
198 218
199 211
199 217
200 210
200 215
201 209
201 213
203 333
204 263
205 229
205 236
205 241
206 228
206 230
207 225
207 239
209 223
210 223
211 223
212 226
212 227
212 234
212 235
213 222
213 237
214 238
215 232
216 231
216 240
219 224
219 238
221 233
223 244
223 245
223 246
223 247
223 248
224 263
225 255
225 259
226 243
227 253
227 256
227 258
228 249
230 257
231 242
231 252
232 251
235 243
235 254
236 250
239 299
244 269
245 276
247 274
248 264
249 263
250 263
251 260
252 267
252 268
252 273
252 277
255 261
256 270
256 271
257 262
257 275
258 265
258 266
258 272
261 333
262 280
263 281
263 282
263 283
263 284
263 285
263 286
263 287
263 288
263 289
263 290
263 291
263 292
265 297
265 298
265 322
267 294
268 293
268 300
268 305
269 295
269 304
270 301
271 279
272 296
272 303
276 278
276 299
276 302
279 333
280 309
280 310
280 311
280 312
280 313
280 325
283 327
286 316
286 323
288 324
289 328
291 320
292 315
293 318
293 319
295 322
297 317
298 314
300 326
301 306
301 330
302 329
303 307
303 308
304 321
307 333
308 333
309 341
309 349
312 344
313 340
313 348
314 339
315 334
317 345
319 331
320 343
323 346
325 335
326 336
326 347
327 342
327 351
329 338
330 332
330 337
330 350
333 353
333 354
333 355
333 356
333 357
333 358
333 359
333 360
333 361
333 362
341 363
346 352
350 364

# Target components (T)
133 101

# Revenues (r)
1 25
2 24
3 23
4 23
5 27
6 29
7 24
8 30
9 28
10 22
11 28
12 28
13 27
14 23
15 24
16 28
17 24
18 24
19 30
20 20
21 26
22 22
23 22
24 24
25 22
26 28
27 22
28 26
29 26
30 24
31 30
32 26
33 29
34 27
35 25
36 30
37 23
38 22
39 24
40 27
41 26
42 28
43 29
44 23
45 26
46 29
47 23
48 25
49 27
50 21
51 25
52 25
53 21
54 26
55 26
56 24
57 21
58 28
59 24
60 30
61 30
62 24
63 26
64 23
65 26
66 28
67 26
68 26
69 26
70 23
71 29
72 26
73 25
74 28
75 26
76 27
77 29
78 20
79 30
80 26
81 26
82 26
83 30
84 25
85 20
86 22
87 21
88 27
89 28
90 30
91 21
92 29
93 29
94 29
95 28
96 28
97 25
98 24
99 20
100 26
101 27
102 30
103 27
104 27
105 21
106 23
107 24
108 24
109 27
110 29
111 27
112 21
113 20
114 27
115 24
116 20
117 21
118 25
119 23
120 24
121 28
122 20
123 26
124 27
125 29
126 23
127 21
128 21
129 23
130 24
131 29
132 25
133 27
134 23
135 24
136 25
137 25
138 28
139 27
140 25
141 24
142 22
143 22
144 24
145 27
146 22
147 25
148 22
149 29
150 26
151 20
152 27
153 21
154 23
155 30
156 24
157 22
158 28
159 22
160 26
161 28
162 20
163 23
164 27
165 21
166 30
167 20
168 21
169 21
170 30
171 26
172 21
173 26
174 30
175 22
176 22
177 25
178 26
179 25
180 28
181 28
182 26
183 26
184 22
185 20
186 21
187 29
188 23
189 21
190 29
191 28
192 25
193 22
194 20
195 30
196 25
197 30
198 23
199 25
200 21
201 20
202 21
203 25
204 21
205 26
206 20
207 29
208 27
209 24
210 30
211 21
212 26
213 25
214 28
215 21
216 29
217 25
218 28
219 23
220 29
221 30
222 28
223 20
224 28
225 27
226 30
227 26
228 30
229 23
230 24
231 28
232 25
233 30
234 20
235 20
236 28
237 29
238 22
239 22
240 30
241 26
242 24
243 28
244 29
245 20
246 25
247 28
248 29
249 26
250 28
251 26
252 21
253 29
254 29
255 26
256 29
257 25
258 23
259 20
260 24
261 23
262 20
263 28
264 20
265 24
266 21
267 24
268 26
269 26
270 28
271 21
272 25
273 27
274 24
275 28
276 21
277 21
278 23
279 25
280 28
281 24
282 30
283 23
284 22
285 27
286 25
287 22
288 24
289 25
290 26
291 22
292 25
293 26
294 26
295 24
296 25
297 26
298 21
299 26
300 28
301 22
302 30
303 23
304 26
305 30
306 28
307 22
308 24
309 21
310 26
311 25
312 23
313 23
314 28
315 22
316 30
317 30
318 25
319 20
320 20
321 26
322 24
323 25
324 24
325 23
326 27
327 21
328 25
329 29
330 30
331 22
332 20
333 26
334 21
335 27
336 20
337 27
338 20
339 25
340 23
341 24
342 25
343 28
344 29
345 24
346 24
347 22
348 28
349 28
350 26
351 23
352 26
353 22
354 23
355 20
356 25
357 23
358 30
359 20
360 27
361 28
362 24
363 27
364 29

# Costs (c)
1 8
2 5
3 5
4 6
5 1
6 8
7 9
8 1
9 5
10 3
11 7
12 4
13 9
14 2
15 10
16 1
17 2
18 4
19 4
20 6
21 4
22 4
23 1
24 4
25 9
26 10
27 2
28 10
29 10
30 5
31 6
32 8
33 10
34 9
35 4
36 1
37 9
38 10
39 5
40 1
41 3
42 5
43 6
44 10
45 1
46 5
47 5
48 8
49 10
50 1
51 7
52 5
53 9
54 9
55 8
56 10
57 4
58 9
59 2
60 3
61 10
62 6
63 5
64 4
65 1
66 7
67 3
68 3
69 7
70 6
71 7
72 2
73 9
74 2
75 1
76 10
77 4
78 2
79 6
80 2
81 1
82 8
83 4
84 6
85 8
86 10
87 6
88 5
89 2
90 10
91 2
92 10
93 7
94 8
95 1
96 9
97 10
98 6
99 9
100 5
101 9
102 5
103 8
104 8
105 10
106 10
107 2
108 3
109 7
110 10
111 2
112 2
113 3
114 1
115 2
116 7
117 4
118 5
119 10
120 10
121 10
122 10
123 10
124 3
125 6
126 9
127 10
128 9
129 6
130 6
131 7
132 5
133 8
134 2
135 3
136 5
137 6
138 10
139 5
140 6
141 10
142 8
143 5
144 2
145 2
146 2
147 9
148 2
149 3
150 4
151 3
152 5
153 7
154 1
155 9
156 8
157 5
158 1
159 1
160 3
161 3
162 4
163 3
164 7
165 5
166 7
167 4
168 3
169 4
170 2
171 1
172 7
173 9
174 2
175 10
176 2
177 8
178 1
179 5
180 10
181 1
182 5
183 10
184 3
185 4
186 5
187 4
188 4
189 4
190 8
191 7
192 2
193 8
194 10
195 10
196 1
197 2
198 3
199 8
200 7
201 8
202 6
203 3
204 6
205 6
206 9
207 9
208 4
209 5
210 2
211 9
212 7
213 3
214 3
215 7
216 6
217 9
218 7
219 5
220 3
221 9
222 3
223 6
224 9
225 2
226 3
227 4
228 9
229 6
230 4
231 9
232 3
233 7
234 8
235 8
236 8
237 9
238 4
239 7
240 5
241 5
242 5
243 2
244 7
245 4
246 8
247 1
248 2
249 1
250 6
251 2
252 5
253 8
254 2
255 5
256 5
257 1
258 9
259 2
260 6
261 4
262 4
263 7
264 4
265 1
266 1
267 3
268 3
269 10
270 10
271 1
272 10
273 2
274 5
275 2
276 6
277 9
278 6
279 9
280 8
281 4
282 3
283 4
284 5
285 7
286 4
287 1
288 1
289 8
290 6
291 10
292 3
293 6
294 7
295 6
296 4
297 8
298 3
299 10
300 3
301 6
302 1
303 2
304 10
305 9
306 4
307 6
308 5
309 5
310 9
311 7
312 9
313 3
314 3
315 6
316 4
317 5
318 3
319 2
320 9
321 4
322 9
323 6
324 3
325 10
326 9
327 6
328 1
329 7
330 6
331 2
332 3
333 4
334 9
335 4
336 7
337 2
338 3
339 9
340 4
341 4
342 1
343 2
344 10
345 2
346 6
347 10
348 2
349 3
350 4
351 2
352 7
353 10
354 4
355 5
356 3
357 8
358 1
359 7
360 8
361 9
362 2
363 6
364 1

# Durations (p)
1 68
2 107
3 235
4 148
5 103
6 77
7 204
8 203
9 26
10 124
11 177
12 118
13 58
14 79
15 185
16 350
17 150
18 191
19 76
20 87
21 113
22 87
23 110
24 46
25 105
26 39
27 35
28 118
29 140
30 224
31 283
32 105
33 97
34 123
35 233
36 71
37 157
38 211
39 110
40 100
41 293
42 189
43 42
44 57
45 129
46 164
47 85
48 114
49 108
50 174
51 86
52 87
53 149
54 69
55 110
56 322
57 210
58 54
59 95
60 269
61 129
62 65
63 201
64 155
65 95
66 184
67 34
68 98
69 128
70 190
71 179
72 65
73 103
74 256
75 317
76 246
77 117
78 44
79 57
80 42
81 97
82 23
83 42
84 130
85 256
86 208
87 193
88 242
89 169
90 72
91 61
92 94
93 243
94 49
95 175
96 105
97 256
98 195
99 48
100 56
101 306
102 36
103 182
104 158
105 168
106 238
107 120
108 292
109 167
110 43
111 213
112 86
113 177
114 247
115 30
116 182
117 53
118 258
119 132
120 119
121 164
122 165
123 71
124 257
125 164
126 212
127 168
128 71
129 60
130 160
131 109
132 204
133 250
134 283
135 217
136 197
137 234
138 80
139 150
140 78
141 69
142 25
143 97
144 92
145 91
146 68
147 91
148 171
149 123
150 138
151 153
152 34
153 79
154 220
155 35
156 124
157 108
158 145
159 161
160 52
161 26
162 69
163 294
164 113
165 243
166 184
167 54
168 112
169 193
170 94
171 157
172 69
173 218
174 127
175 99
176 241
177 224
178 234
179 58
180 73
181 66
182 121
183 142
184 102
185 117
186 103
187 69
188 66
189 117
190 136
191 86
192 57
193 67
194 70
195 208
196 112
197 43
198 199
199 109
200 146
201 84
202 203
203 25
204 262
205 194
206 21
207 187
208 105
209 159
210 54
211 52
212 156
213 230
214 189
215 126
216 151
217 98
218 68
219 105
220 102
221 288
222 153
223 35
224 71
225 311
226 201
227 115
228 39
229 54
230 143
231 58
232 124
233 317
234 182
235 198
236 21
237 213
238 185
239 169
240 44
241 32
242 172
243 329
244 134
245 128
246 69
247 82
248 49
249 43
250 22
251 345
252 215
253 123
254 120
255 125
256 150
257 59
258 96
259 30
260 49
261 262
262 45
263 114
264 145
265 167
266 148
267 112
268 126
269 183
270 296
271 87
272 109
273 53
274 53
275 162
276 211
277 95
278 98
279 186
280 150
281 253
282 134
283 45
284 79
285 59
286 215
287 205
288 268
289 88
290 119
291 93
292 307
293 29
294 172
295 191
296 235
297 280
298 157
299 178
300 115
301 39
302 118
303 229
304 141
305 96
306 73
307 64
308 66
309 272
310 30
311 149
312 113
313 100
314 217
315 164
316 223
317 152
318 150
319 86
320 79
321 80
322 134
323 75
324 82
325 32
326 63
327 231
328 165
329 45
330 163
331 145
332 28
333 43
334 174
335 128
336 82
337 37
338 179
339 196
340 154
341 223
342 29
343 54
344 74
345 44
346 256
347 245
348 284
349 129
350 31
351 154
352 161
353 70
354 338
355 220
356 218
357 250
358 117
359 33
360 157
361 254
362 202
363 48
364 78

orderrules
3 333 au002 avant au332
4 333 au003 avant au332
5 136 au004 avant au135
6 136 au005 avant au135
7 169 au006 avant au168
8 280 au007 avant au279
9 263 au008 avant au262
10 27 au009 avant au026
10 40 au009 avant au039
11 31 au010 avant au030
12 33 au011 avant au032
12 35 au011 avant au034
13 23 au012 avant au022
14 39 au013 avant au038
15 25 au014 avant au024
15 32 au014 avant au031
16 38 au015 avant au037
17 24 au016 avant au023
17 29 au016 avant au028
17 36 au016 avant au035
18 30 au017 avant au029
18 34 au017 avant au033
19 22 au018 avant au021
19 37 au018 avant au036
20 28 au019 avant au027
21 26 au020 avant au025
21 41 au020 avant au040
22 333 au021 avant au332
23 136 au022 avant au135
24 136 au023 avant au135
25 169 au024 avant au168
26 280 au025 avant au279
27 263 au026 avant au262
28 42 au027 avant au041
29 54 au028 avant au053
31 48 au030 avant au047
31 57 au030 avant au056
31 58 au030 avant au057
31 59 au030 avant au058
32 52 au031 avant au051
32 115 au031 avant au114
33 47 au032 avant au046
34 45 au033 avant au044
34 51 au033 avant au050
34 55 au033 avant au054
36 43 au035 avant au042
36 44 au035 avant au043
36 56 au035 avant au055
37 46 au036 avant au045
39 50 au038 avant au049
40 49 au039 avant au048
40 53 au039 avant au052
43 136 au042 avant au135
44 169 au043 avant au168
45 63 au044 avant au062
45 66 au044 avant au065
45 70 au044 avant au069
45 82 au044 avant au081
47 72 au046 avant au071
49 67 au048 avant au066
49 74 au048 avant au073
49 80 au048 avant au079
50 79 au049 avant au078
50 81 au049 avant au080
51 64 au050 avant au063
51 75 au050 avant au074
51 85 au050 avant au084
52 68 au051 avant au067
53 60 au052 avant au059
53 77 au052 avant au076
53 83 au052 avant au082
54 62 au053 avant au061
54 69 au053 avant au068
54 73 au053 avant au072
54 78 au053 avant au077
56 61 au055 avant au060
56 65 au055 avant au064
56 71 au055 avant au070
57 84 au056 avant au083
58 76 au057 avant au075
63 333 au062 avant au332
64 333 au063 avant au332
65 136 au064 avant au135
66 136 au065 avant au135
67 169 au066 avant au168
68 280 au067 avant au279
69 280 au068 avant au279
70 86 au069 avant au085
71 103 au070 avant au102
72 91 au071 avant au090
72 100 au071 avant au099
73 327 au072 avant au326
75 88 au074 avant au087
75 264 au074 avant au263
76 87 au075 avant au086
76 102 au075 avant au101
77 92 au076 avant au091
77 95 au076 avant au094
77 104 au076 avant au103
79 97 au078 avant au096
80 90 au079 avant au089
80 105 au079 avant au104
82 101 au081 avant au100
84 89 au083 avant au088
85 93 au084 avant au092
85 94 au084 avant au093
85 96 au084 avant au095
85 98 au084 avant au097
85 99 au084 avant au098
85 106 au084 avant au105
85 107 au084 avant au106
87 180 au086 avant au179
90 136 au089 avant au135
91 136 au090 avant au135
92 136 au091 avant au135
93 136 au092 avant au135
94 169 au093 avant au168
95 169 au094 avant au168
96 108 au095 avant au107
96 123 au095 avant au122
97 112 au096 avant au111
97 127 au096 avant au126
98 114 au097 avant au113
98 120 au097 avant au119
98 121 au097 avant au120
98 125 au097 avant au124
98 130 au097 avant au129
99 119 au098 avant au118
99 126 au098 avant au125
100 110 au099 avant au109
102 122 au101 avant au121
102 124 au101 avant au123
102 131 au101 avant au130
103 111 au102 avant au110
104 128 au103 avant au127
105 113 au104 avant au112
105 116 au104 avant au115
105 129 au104 avant au128
106 115 au105 avant au114
106 117 au105 avant au116
107 109 au106 avant au108
107 118 au106 avant au117
108 180 au107 avant au179
109 180 au108 avant au179
111 223 au110 avant au222
112 223 au111 avant au222
113 333 au112 avant au332
114 136 au113 avant au135
115 136 au114 avant au135
116 136 au115 avant au135
117 135 au116 avant au134
117 143 au116 avant au142
118 134 au117 avant au133
118 140 au117 avant au139
118 144 au117 avant au143
118 150 au117 avant au149
120 137 au119 avant au136
121 132 au120 avant au131
121 139 au120 avant au138
122 149 au121 avant au148
123 146 au122 avant au145
125 138 au124 avant au137
125 141 au124 avant au140
126 133 au125 avant au132
128 142 au127 avant au141
128 147 au127 avant au146
129 148 au128 avant au147
130 152 au129 avant au151
131 145 au130 avant au144
131 151 au130 avant au150
136 161 au135 avant au160
136 162 au135 avant au161
136 163 au135 avant au162
136 164 au135 avant au163
136 165 au135 avant au164
136 166 au135 avant au165
136 167 au135 avant au166
136 168 au135 avant au167
136 176 au135 avant au175
137 169 au136 avant au168
138 169 au137 avant au168
139 169 au138 avant au168
141 159 au140 avant au158
141 173 au140 avant au172
141 175 au140 avant au174
142 172 au141 avant au171
145 156 au144 avant au155
147 178 au146 avant au177
148 157 au147 avant au156
148 171 au147 avant au170
148 177 au147 avant au176
149 153 au148 avant au152
149 154 au148 avant au153
151 155 au150 avant au154
151 158 au150 avant au157
151 160 au150 avant au159
152 160 au151 avant au159
152 170 au151 avant au169
152 174 au151 avant au173
154 180 au153 avant au179
155 180 au154 avant au179
160 333 au159 avant au332
164 202 au163 avant au201
167 191 au166 avant au190
168 192 au167 avant au191
169 184 au168 avant au183
169 185 au168 avant au184
169 186 au168 avant au185
169 187 au168 avant au186
169 188 au168 avant au187
169 189 au168 avant au188
169 190 au168 avant au189
170 193 au169 avant au192
172 201 au171 avant au200
174 179 au173 avant au178
175 194 au174 avant au193
176 181 au175 avant au180
176 195 au175 avant au194
176 196 au175 avant au195
176 198 au175 avant au197
177 182 au176 avant au181
177 183 au176 avant au182
177 199 au176 avant au198
177 200 au176 avant au199
178 197 au177 avant au196
180 203 au179 avant au202
180 204 au179 avant au203
180 205 au179 avant au204
180 206 au179 avant au205
180 207 au179 avant au206
183 223 au182 avant au222
185 272 au184 avant au271
187 208 au186 avant au207
189 214 au188 avant au213
189 220 au188 avant au219
191 219 au190 avant au218
192 216 au191 avant au215
194 221 au193 avant au220
197 212 au196 avant au211
198 218 au197 avant au217
199 211 au198 avant au210
199 217 au198 avant au216
200 210 au199 avant au209
200 215 au199 avant au214
201 209 au200 avant au208
201 213 au200 avant au212
203 333 au202 avant au332
204 263 au203 avant au262
205 229 au204 avant au228
205 236 au204 avant au235
205 241 au204 avant au240
206 228 au205 avant au227
206 230 au205 avant au229
207 225 au206 avant au224
207 239 au206 avant au238
209 223 au208 avant au222
210 223 au209 avant au222
211 223 au210 avant au222
212 226 au211 avant au225
212 227 au211 avant au226
212 234 au211 avant au233
212 235 au211 avant au234
213 222 au212 avant au221
213 237 au212 avant au236
214 238 au213 avant au237
215 232 au214 avant au231
216 231 au215 avant au230
216 240 au215 avant au239
219 224 au218 avant au223
219 238 au218 avant au237
221 233 au220 avant au232
223 244 au222 avant au243
223 245 au222 avant au244
223 246 au222 avant au245
223 247 au222 avant au246
223 248 au222 avant au247
224 263 au223 avant au262
225 255 au224 avant au254
225 259 au224 avant au258
226 243 au225 avant au242
227 253 au226 avant au252
227 256 au226 avant au255
227 258 au226 avant au257
228 249 au227 avant au248
230 257 au229 avant au256
231 242 au230 avant au241
231 252 au230 avant au251
232 251 au231 avant au250
235 243 au234 avant au242
235 254 au234 avant au253
236 250 au235 avant au249
239 299 au238 avant au298
244 269 au243 avant au268
245 276 au244 avant au275
247 274 au246 avant au273
248 264 au247 avant au263
249 263 au248 avant au262
250 263 au249 avant au262
251 260 au250 avant au259
252 267 au251 avant au266
252 268 au251 avant au267
252 273 au251 avant au272
252 277 au251 avant au276
255 261 au254 avant au260
256 270 au255 avant au269
256 271 au255 avant au270
257 262 au256 avant au261
257 275 au256 avant au274
258 265 au257 avant au264
258 266 au257 avant au265
258 272 au257 avant au271
261 333 au260 avant au332
262 280 au261 avant au279
263 281 au262 avant au280
263 282 au262 avant au281
263 283 au262 avant au282
263 284 au262 avant au283
263 285 au262 avant au284
263 286 au262 avant au285
263 287 au262 avant au286
263 288 au262 avant au287
263 289 au262 avant au288
263 290 au262 avant au289
263 291 au262 avant au290
263 292 au262 avant au291
265 297 au264 avant au296
265 298 au264 avant au297
265 322 au264 avant au321
267 294 au266 avant au293
268 293 au267 avant au292
268 300 au267 avant au299
268 305 au267 avant au304
269 295 au268 avant au294
269 304 au268 avant au303
270 301 au269 avant au300
271 279 au270 avant au278
272 296 au271 avant au295
272 303 au271 avant au302
276 278 au275 avant au277
276 299 au275 avant au298
276 302 au275 avant au301
279 333 au278 avant au332
280 309 au279 avant au308
280 310 au279 avant au309
280 311 au279 avant au310
280 312 au279 avant au311
280 313 au279 avant au312
280 325 au279 avant au324
283 327 au282 avant au326
286 316 au285 avant au315
286 323 au285 avant au322
288 324 au287 avant au323
289 328 au288 avant au327
291 320 au290 avant au319
292 315 au291 avant au314
293 318 au292 avant au317
293 319 au292 avant au318
295 322 au294 avant au321
297 317 au296 avant au316
298 314 au297 avant au313
300 326 au299 avant au325
301 306 au300 avant au305
301 330 au300 avant au329
302 329 au301 avant au328
303 307 au302 avant au306
303 308 au302 avant au307
304 321 au303 avant au320
307 333 au306 avant au332
308 333 au307 avant au332
309 341 au308 avant au340
309 349 au308 avant au348
312 344 au311 avant au343
313 340 au312 avant au339
313 348 au312 avant au347
314 339 au313 avant au338
315 334 au314 avant au333
317 345 au316 avant au344
319 331 au318 avant au330
320 343 au319 avant au342
323 346 au322 avant au345
325 335 au324 avant au334
326 336 au325 avant au335
326 347 au325 avant au346
327 342 au326 avant au341
327 351 au326 avant au350
329 338 au328 avant au337
330 332 au329 avant au331
330 337 au329 avant au336
330 350 au329 avant au349
333 353 au332 avant au352
333 354 au332 avant au353
333 355 au332 avant au354
333 356 au332 avant au355
333 357 au332 avant au356
333 358 au332 avant au357
333 359 au332 avant au358
333 360 au332 avant au359
333 361 au332 avant au360
333 362 au332 avant au361
341 363 au340 avant au362
346 352 au345 avant au351
350 364 au349 avant au363
